; benchmark generated from python API
(set-info :status unknown)
(declare-fun cell_1_3 () Int)
(declare-fun cell_1_9 () Int)
(declare-fun cell_2_1 () Int)
(declare-fun cell_2_6 () Int)
(declare-fun cell_3_4 () Int)
(declare-fun cell_3_9 () Int)
(declare-fun cell_4_4 () Int)
(declare-fun cell_4_7 () Int)
(declare-fun cell_5_3 () Int)
(declare-fun cell_5_8 () Int)
(declare-fun cell_6_2 () Int)
(declare-fun cell_6_6 () Int)
(declare-fun cell_7_2 () Int)
(declare-fun cell_8_8 () Int)
(declare-fun cell_9_5 () Int)
(declare-fun cell_1_1 () Int)
(declare-fun cell_3_1 () Int)
(declare-fun cell_4_1 () Int)
(declare-fun cell_5_1 () Int)
(declare-fun cell_6_1 () Int)
(declare-fun cell_7_1 () Int)
(declare-fun cell_8_1 () Int)
(declare-fun cell_9_1 () Int)
(declare-fun cell_1_2 () Int)
(declare-fun cell_2_2 () Int)
(declare-fun cell_3_2 () Int)
(declare-fun cell_4_2 () Int)
(declare-fun cell_5_2 () Int)
(declare-fun cell_8_2 () Int)
(declare-fun cell_9_2 () Int)
(declare-fun cell_2_3 () Int)
(declare-fun cell_3_3 () Int)
(declare-fun cell_4_3 () Int)
(declare-fun cell_6_3 () Int)
(declare-fun cell_7_3 () Int)
(declare-fun cell_8_3 () Int)
(declare-fun cell_9_3 () Int)
(declare-fun cell_1_4 () Int)
(declare-fun cell_2_4 () Int)
(declare-fun cell_5_4 () Int)
(declare-fun cell_6_4 () Int)
(declare-fun cell_7_4 () Int)
(declare-fun cell_8_4 () Int)
(declare-fun cell_9_4 () Int)
(declare-fun cell_1_5 () Int)
(declare-fun cell_2_5 () Int)
(declare-fun cell_3_5 () Int)
(declare-fun cell_4_5 () Int)
(declare-fun cell_5_5 () Int)
(declare-fun cell_6_5 () Int)
(declare-fun cell_7_5 () Int)
(declare-fun cell_8_5 () Int)
(declare-fun cell_1_6 () Int)
(declare-fun cell_3_6 () Int)
(declare-fun cell_4_6 () Int)
(declare-fun cell_5_6 () Int)
(declare-fun cell_7_6 () Int)
(declare-fun cell_8_6 () Int)
(declare-fun cell_9_6 () Int)
(declare-fun cell_1_7 () Int)
(declare-fun cell_2_7 () Int)
(declare-fun cell_3_7 () Int)
(declare-fun cell_5_7 () Int)
(declare-fun cell_6_7 () Int)
(declare-fun cell_7_7 () Int)
(declare-fun cell_8_7 () Int)
(declare-fun cell_9_7 () Int)
(declare-fun cell_1_8 () Int)
(declare-fun cell_2_8 () Int)
(declare-fun cell_3_8 () Int)
(declare-fun cell_4_8 () Int)
(declare-fun cell_6_8 () Int)
(declare-fun cell_7_8 () Int)
(declare-fun cell_9_8 () Int)
(declare-fun cell_2_9 () Int)
(declare-fun cell_4_9 () Int)
(declare-fun cell_5_9 () Int)
(declare-fun cell_6_9 () Int)
(declare-fun cell_7_9 () Int)
(declare-fun cell_8_9 () Int)
(declare-fun cell_9_9 () Int)
(assert
 (= cell_1_3 2))
(assert
 (= cell_1_9 1))
(assert
 (= cell_2_1 1))
(assert
 (= cell_2_6 2))
(assert
 (= cell_3_4 1))
(assert
 (= cell_3_9 2))
(assert
 (= cell_4_4 2))
(assert
 (= cell_4_7 1))
(assert
 (= cell_5_3 1))
(assert
 (= cell_5_8 2))
(assert
 (= cell_6_2 2))
(assert
 (= cell_6_6 1))
(assert
 (= cell_7_2 1))
(assert
 (= cell_8_8 1))
(assert
 (= cell_9_5 1))
(assert
 (let (($x2099 (= cell_1_1 9)))
 (let (($x3622 (= cell_1_1 8)))
 (let (($x2361 (= cell_1_1 7)))
 (let (($x2052 (= cell_1_1 6)))
 (let (($x2182 (= cell_1_1 5)))
 (let (($x694 (= cell_1_1 4)))
 (let (($x979 (= cell_1_1 3)))
 (let (($x2888 (= cell_1_1 2)))
 (let (($x1823 (= cell_1_1 1)))
 (or $x1823 $x2888 $x979 $x694 $x2182 $x2052 $x2361 $x3622 $x2099)))))))))))
(assert
 (let (($x3255 (= cell_2_1 1)))
 (or $x3255 (= cell_2_1 2) (= cell_2_1 3) (= cell_2_1 4) (= cell_2_1 5) (= cell_2_1 6) (= cell_2_1 7) (= cell_2_1 8) (= cell_2_1 9))))
(assert
 (let (($x2841 (= cell_3_1 9)))
 (let (($x4075 (= cell_3_1 8)))
 (let (($x3089 (= cell_3_1 7)))
 (let (($x436 (= cell_3_1 6)))
 (let (($x1171 (= cell_3_1 5)))
 (let (($x1991 (= cell_3_1 4)))
 (let (($x4158 (= cell_3_1 3)))
 (let (($x494 (= cell_3_1 2)))
 (let (($x2346 (= cell_3_1 1)))
 (or $x2346 $x494 $x4158 $x1991 $x1171 $x436 $x3089 $x4075 $x2841)))))))))))
(assert
 (let (($x992 (= cell_4_1 9)))
 (let (($x1424 (= cell_4_1 8)))
 (let (($x984 (= cell_4_1 7)))
 (let (($x2678 (= cell_4_1 6)))
 (let (($x7697 (= cell_4_1 5)))
 (let (($x2349 (= cell_4_1 4)))
 (let (($x4083 (= cell_4_1 3)))
 (let (($x3143 (= cell_4_1 2)))
 (let (($x1922 (= cell_4_1 1)))
 (or $x1922 $x3143 $x4083 $x2349 $x7697 $x2678 $x984 $x1424 $x992)))))))))))
(assert
 (let (($x2485 (= cell_5_1 9)))
 (let (($x368 (= cell_5_1 8)))
 (let (($x342 (= cell_5_1 7)))
 (let (($x1937 (= cell_5_1 6)))
 (let (($x3271 (= cell_5_1 5)))
 (let (($x125 (= cell_5_1 4)))
 (let (($x2907 (= cell_5_1 3)))
 (let (($x1191 (= cell_5_1 2)))
 (let (($x306 (= cell_5_1 1)))
 (or $x306 $x1191 $x2907 $x125 $x3271 $x1937 $x342 $x368 $x2485)))))))))))
(assert
 (let (($x1117 (= cell_6_1 9)))
 (let (($x3745 (= cell_6_1 8)))
 (let (($x1668 (= cell_6_1 7)))
 (let (($x2745 (= cell_6_1 6)))
 (let (($x827 (= cell_6_1 5)))
 (let (($x65 (= cell_6_1 4)))
 (let (($x1735 (= cell_6_1 3)))
 (let (($x2043 (= cell_6_1 2)))
 (let (($x2213 (= cell_6_1 1)))
 (or $x2213 $x2043 $x1735 $x65 $x827 $x2745 $x1668 $x3745 $x1117)))))))))))
(assert
 (let (($x2407 (= cell_7_1 9)))
 (let (($x634 (= cell_7_1 8)))
 (let (($x1759 (= cell_7_1 7)))
 (let (($x2719 (= cell_7_1 6)))
 (let (($x3749 (= cell_7_1 5)))
 (let (($x2941 (= cell_7_1 4)))
 (let (($x219 (= cell_7_1 3)))
 (let (($x7809 (= cell_7_1 2)))
 (let (($x1800 (= cell_7_1 1)))
 (or $x1800 $x7809 $x219 $x2941 $x3749 $x2719 $x1759 $x634 $x2407)))))))))))
(assert
 (let (($x3835 (= cell_8_1 9)))
 (let (($x7685 (= cell_8_1 8)))
 (let (($x3457 (= cell_8_1 7)))
 (let (($x7853 (= cell_8_1 6)))
 (let (($x3081 (= cell_8_1 5)))
 (let (($x617 (= cell_8_1 4)))
 (let (($x411 (= cell_8_1 3)))
 (let (($x1006 (= cell_8_1 2)))
 (let (($x859 (= cell_8_1 1)))
 (or $x859 $x1006 $x411 $x617 $x3081 $x7853 $x3457 $x7685 $x3835)))))))))))
(assert
 (let (($x1128 (= cell_9_1 9)))
 (let (($x7982 (= cell_9_1 8)))
 (let (($x419 (= cell_9_1 7)))
 (let (($x1938 (= cell_9_1 6)))
 (let (($x672 (= cell_9_1 5)))
 (let (($x1693 (= cell_9_1 4)))
 (let (($x1295 (= cell_9_1 3)))
 (let (($x2302 (= cell_9_1 2)))
 (let (($x1822 (= cell_9_1 1)))
 (or $x1822 $x2302 $x1295 $x1693 $x672 $x1938 $x419 $x7982 $x1128)))))))))))
(assert
 (let (($x569 (= cell_1_2 9)))
 (let (($x3380 (= cell_1_2 8)))
 (let (($x2084 (= cell_1_2 7)))
 (let (($x2994 (= cell_1_2 6)))
 (let (($x1336 (= cell_1_2 5)))
 (let (($x1077 (= cell_1_2 4)))
 (let (($x1661 (= cell_1_2 3)))
 (let (($x2740 (= cell_1_2 2)))
 (let (($x662 (= cell_1_2 1)))
 (or $x662 $x2740 $x1661 $x1077 $x1336 $x2994 $x2084 $x3380 $x569)))))))))))
(assert
 (let (($x1718 (= cell_2_2 9)))
 (let (($x3767 (= cell_2_2 8)))
 (let (($x3237 (= cell_2_2 7)))
 (let (($x1571 (= cell_2_2 6)))
 (let (($x1598 (= cell_2_2 5)))
 (let (($x3606 (= cell_2_2 4)))
 (let (($x2399 (= cell_2_2 3)))
 (let (($x633 (= cell_2_2 2)))
 (let (($x3618 (= cell_2_2 1)))
 (or $x3618 $x633 $x2399 $x3606 $x1598 $x1571 $x3237 $x3767 $x1718)))))))))))
(assert
 (let (($x7994 (= cell_3_2 9)))
 (let (($x589 (= cell_3_2 8)))
 (let (($x22 (= cell_3_2 7)))
 (let (($x2089 (= cell_3_2 6)))
 (let (($x2145 (= cell_3_2 5)))
 (let (($x3711 (= cell_3_2 4)))
 (let (($x1682 (= cell_3_2 3)))
 (let (($x3093 (= cell_3_2 2)))
 (let (($x1152 (= cell_3_2 1)))
 (or $x1152 $x3093 $x1682 $x3711 $x2145 $x2089 $x22 $x589 $x7994)))))))))))
(assert
 (let (($x1830 (= cell_4_2 9)))
 (let (($x2152 (= cell_4_2 8)))
 (let (($x7792 (= cell_4_2 7)))
 (let (($x1237 (= cell_4_2 6)))
 (let (($x2430 (= cell_4_2 5)))
 (let (($x3441 (= cell_4_2 4)))
 (let (($x2409 (= cell_4_2 3)))
 (let (($x728 (= cell_4_2 2)))
 (let (($x2651 (= cell_4_2 1)))
 (or $x2651 $x728 $x2409 $x3441 $x2430 $x1237 $x7792 $x2152 $x1830)))))))))))
(assert
 (let (($x1776 (= cell_5_2 9)))
 (let (($x839 (= cell_5_2 8)))
 (let (($x1115 (= cell_5_2 7)))
 (let (($x7867 (= cell_5_2 6)))
 (let (($x3377 (= cell_5_2 5)))
 (let (($x2142 (= cell_5_2 4)))
 (let (($x7818 (= cell_5_2 3)))
 (let (($x13 (= cell_5_2 2)))
 (let (($x2642 (= cell_5_2 1)))
 (or $x2642 $x13 $x7818 $x2142 $x3377 $x7867 $x1115 $x839 $x1776)))))))))))
(assert
 (let (($x3038 (= cell_6_2 2)))
 (or (= cell_6_2 1) $x3038 (= cell_6_2 3) (= cell_6_2 4) (= cell_6_2 5) (= cell_6_2 6) (= cell_6_2 7) (= cell_6_2 8) (= cell_6_2 9))))
(assert
 (let (($x422 (= cell_7_2 1)))
 (or $x422 (= cell_7_2 2) (= cell_7_2 3) (= cell_7_2 4) (= cell_7_2 5) (= cell_7_2 6) (= cell_7_2 7) (= cell_7_2 8) (= cell_7_2 9))))
(assert
 (let (($x1420 (= cell_8_2 9)))
 (let (($x1259 (= cell_8_2 8)))
 (let (($x2759 (= cell_8_2 7)))
 (let (($x651 (= cell_8_2 6)))
 (let (($x2750 (= cell_8_2 5)))
 (let (($x1415 (= cell_8_2 4)))
 (let (($x2940 (= cell_8_2 3)))
 (let (($x1674 (= cell_8_2 2)))
 (let (($x2662 (= cell_8_2 1)))
 (or $x2662 $x1674 $x2940 $x1415 $x2750 $x651 $x2759 $x1259 $x1420)))))))))))
(assert
 (let (($x1105 (= cell_9_2 9)))
 (let (($x2783 (= cell_9_2 8)))
 (let (($x3763 (= cell_9_2 7)))
 (let (($x1373 (= cell_9_2 6)))
 (let (($x191 (= cell_9_2 5)))
 (let (($x869 (= cell_9_2 4)))
 (let (($x355 (= cell_9_2 3)))
 (let (($x3666 (= cell_9_2 2)))
 (let (($x143 (= cell_9_2 1)))
 (or $x143 $x3666 $x355 $x869 $x191 $x1373 $x3763 $x2783 $x1105)))))))))))
(assert
 (let (($x2318 (= cell_1_3 2)))
 (or (= cell_1_3 1) $x2318 (= cell_1_3 3) (= cell_1_3 4) (= cell_1_3 5) (= cell_1_3 6) (= cell_1_3 7) (= cell_1_3 8) (= cell_1_3 9))))
(assert
 (let (($x2892 (= cell_2_3 9)))
 (let (($x2467 (= cell_2_3 8)))
 (let (($x1341 (= cell_2_3 7)))
 (let (($x1017 (= cell_2_3 6)))
 (let (($x265 (= cell_2_3 5)))
 (let (($x3065 (= cell_2_3 4)))
 (let (($x79 (= cell_2_3 3)))
 (let (($x1122 (= cell_2_3 2)))
 (let (($x2393 (= cell_2_3 1)))
 (or $x2393 $x1122 $x79 $x3065 $x265 $x1017 $x1341 $x2467 $x2892)))))))))))
(assert
 (let (($x3879 (= cell_3_3 9)))
 (let (($x2260 (= cell_3_3 8)))
 (let (($x2890 (= cell_3_3 7)))
 (let (($x745 (= cell_3_3 6)))
 (let (($x3667 (= cell_3_3 5)))
 (let (($x3309 (= cell_3_3 4)))
 (let (($x1796 (= cell_3_3 3)))
 (let (($x1092 (= cell_3_3 2)))
 (let (($x1111 (= cell_3_3 1)))
 (or $x1111 $x1092 $x1796 $x3309 $x3667 $x745 $x2890 $x2260 $x3879)))))))))))
(assert
 (let (($x3295 (= cell_4_3 9)))
 (let (($x2176 (= cell_4_3 8)))
 (let (($x677 (= cell_4_3 7)))
 (let (($x3860 (= cell_4_3 6)))
 (let (($x455 (= cell_4_3 5)))
 (let (($x3642 (= cell_4_3 4)))
 (let (($x3340 (= cell_4_3 3)))
 (let (($x3730 (= cell_4_3 2)))
 (let (($x2739 (= cell_4_3 1)))
 (or $x2739 $x3730 $x3340 $x3642 $x455 $x3860 $x677 $x2176 $x3295)))))))))))
(assert
 (let (($x4155 (= cell_5_3 1)))
 (or $x4155 (= cell_5_3 2) (= cell_5_3 3) (= cell_5_3 4) (= cell_5_3 5) (= cell_5_3 6) (= cell_5_3 7) (= cell_5_3 8) (= cell_5_3 9))))
(assert
 (let (($x468 (= cell_6_3 9)))
 (let (($x1386 (= cell_6_3 8)))
 (let (($x783 (= cell_6_3 7)))
 (let (($x1768 (= cell_6_3 6)))
 (let (($x7771 (= cell_6_3 5)))
 (let (($x2915 (= cell_6_3 4)))
 (let (($x7980 (= cell_6_3 3)))
 (let (($x2497 (= cell_6_3 2)))
 (let (($x1524 (= cell_6_3 1)))
 (or $x1524 $x2497 $x7980 $x2915 $x7771 $x1768 $x783 $x1386 $x468)))))))))))
(assert
 (let (($x499 (= cell_7_3 2)))
 (let (($x3499 (= cell_7_3 1)))
 (or $x3499 $x499 (= cell_7_3 3) (= cell_7_3 4) (= cell_7_3 5) (= cell_7_3 6) (= cell_7_3 7) (= cell_7_3 8) (= cell_7_3 9)))))
(assert
 (let (($x1143 (= cell_8_3 9)))
 (let (($x2498 (= cell_8_3 8)))
 (let (($x3124 (= cell_8_3 7)))
 (let (($x537 (= cell_8_3 6)))
 (let (($x3833 (= cell_8_3 5)))
 (let (($x1346 (= cell_8_3 4)))
 (let (($x403 (= cell_8_3 3)))
 (let (($x2441 (= cell_8_3 2)))
 (let (($x3481 (= cell_8_3 1)))
 (or $x3481 $x2441 $x403 $x1346 $x3833 $x537 $x3124 $x2498 $x1143)))))))))))
(assert
 (let (($x586 (= cell_9_3 9)))
 (let (($x1552 (= cell_9_3 8)))
 (let (($x287 (= cell_9_3 7)))
 (let (($x2465 (= cell_9_3 6)))
 (let (($x1720 (= cell_9_3 5)))
 (let (($x1165 (= cell_9_3 4)))
 (let (($x3177 (= cell_9_3 3)))
 (let (($x2663 (= cell_9_3 2)))
 (let (($x2277 (= cell_9_3 1)))
 (or $x2277 $x2663 $x3177 $x1165 $x1720 $x2465 $x287 $x1552 $x586)))))))))))
(assert
 (let (($x2322 (= cell_1_4 9)))
 (let (($x2839 (= cell_1_4 8)))
 (let (($x228 (= cell_1_4 7)))
 (let (($x2119 (= cell_1_4 6)))
 (let (($x2755 (= cell_1_4 5)))
 (let (($x2901 (= cell_1_4 4)))
 (let (($x160 (= cell_1_4 3)))
 (let (($x3872 (= cell_1_4 2)))
 (let (($x3530 (= cell_1_4 1)))
 (or $x3530 $x3872 $x160 $x2901 $x2755 $x2119 $x228 $x2839 $x2322)))))))))))
(assert
 (let (($x1654 (= cell_2_4 9)))
 (let (($x3559 (= cell_2_4 8)))
 (let (($x2007 (= cell_2_4 7)))
 (let (($x71 (= cell_2_4 6)))
 (let (($x2795 (= cell_2_4 5)))
 (let (($x2712 (= cell_2_4 4)))
 (let (($x1868 (= cell_2_4 3)))
 (let (($x6997 (= cell_2_4 2)))
 (let (($x3058 (= cell_2_4 1)))
 (or $x3058 $x6997 $x1868 $x2712 $x2795 $x71 $x2007 $x3559 $x1654)))))))))))
(assert
 (let (($x1728 (= cell_3_4 1)))
 (or $x1728 (= cell_3_4 2) (= cell_3_4 3) (= cell_3_4 4) (= cell_3_4 5) (= cell_3_4 6) (= cell_3_4 7) (= cell_3_4 8) (= cell_3_4 9))))
(assert
 (let (($x3693 (= cell_4_4 2)))
 (or (= cell_4_4 1) $x3693 (= cell_4_4 3) (= cell_4_4 4) (= cell_4_4 5) (= cell_4_4 6) (= cell_4_4 7) (= cell_4_4 8) (= cell_4_4 9))))
(assert
 (let (($x1312 (= cell_5_4 9)))
 (let (($x1987 (= cell_5_4 8)))
 (let (($x919 (= cell_5_4 7)))
 (let (($x3172 (= cell_5_4 6)))
 (let (($x1804 (= cell_5_4 5)))
 (let (($x1375 (= cell_5_4 4)))
 (let (($x2414 (= cell_5_4 3)))
 (let (($x1230 (= cell_5_4 2)))
 (let (($x1726 (= cell_5_4 1)))
 (or $x1726 $x1230 $x2414 $x1375 $x1804 $x3172 $x919 $x1987 $x1312)))))))))))
(assert
 (let (($x197 (= cell_6_4 9)))
 (let (($x2693 (= cell_6_4 8)))
 (let (($x3591 (= cell_6_4 7)))
 (let (($x1771 (= cell_6_4 6)))
 (let (($x2106 (= cell_6_4 5)))
 (let (($x2197 (= cell_6_4 4)))
 (let (($x7786 (= cell_6_4 3)))
 (let (($x2935 (= cell_6_4 2)))
 (let (($x942 (= cell_6_4 1)))
 (or $x942 $x2935 $x7786 $x2197 $x2106 $x1771 $x3591 $x2693 $x197)))))))))))
(assert
 (let (($x3889 (= cell_7_4 9)))
 (let (($x579 (= cell_7_4 8)))
 (let (($x2620 (= cell_7_4 7)))
 (let (($x1065 (= cell_7_4 6)))
 (let (($x2791 (= cell_7_4 5)))
 (let (($x2128 (= cell_7_4 4)))
 (let (($x1233 (= cell_7_4 3)))
 (let (($x961 (= cell_7_4 2)))
 (let (($x3100 (= cell_7_4 1)))
 (or $x3100 $x961 $x1233 $x2128 $x2791 $x1065 $x2620 $x579 $x3889)))))))))))
(assert
 (let (($x1205 (= cell_8_4 9)))
 (let (($x459 (= cell_8_4 8)))
 (let (($x1309 (= cell_8_4 7)))
 (let (($x4086 (= cell_8_4 6)))
 (let (($x1919 (= cell_8_4 5)))
 (let (($x922 (= cell_8_4 4)))
 (let (($x700 (= cell_8_4 3)))
 (let (($x448 (= cell_8_4 2)))
 (let (($x1894 (= cell_8_4 1)))
 (or $x1894 $x448 $x700 $x922 $x1919 $x4086 $x1309 $x459 $x1205)))))))))))
(assert
 (let (($x1762 (= cell_9_4 9)))
 (let (($x2827 (= cell_9_4 8)))
 (let (($x1884 (= cell_9_4 7)))
 (let (($x162 (= cell_9_4 6)))
 (let (($x192 (= cell_9_4 5)))
 (let (($x407 (= cell_9_4 4)))
 (let (($x3484 (= cell_9_4 3)))
 (let (($x862 (= cell_9_4 2)))
 (let (($x2458 (= cell_9_4 1)))
 (or $x2458 $x862 $x3484 $x407 $x192 $x162 $x1884 $x2827 $x1762)))))))))))
(assert
 (let (($x1255 (= cell_1_5 9)))
 (let (($x2794 (= cell_1_5 8)))
 (let (($x112 (= cell_1_5 7)))
 (let (($x1766 (= cell_1_5 6)))
 (let (($x3881 (= cell_1_5 5)))
 (let (($x609 (= cell_1_5 4)))
 (let (($x1031 (= cell_1_5 3)))
 (let (($x2503 (= cell_1_5 2)))
 (let (($x1357 (= cell_1_5 1)))
 (or $x1357 $x2503 $x1031 $x609 $x3881 $x1766 $x112 $x2794 $x1255)))))))))))
(assert
 (let (($x2154 (= cell_2_5 9)))
 (let (($x3138 (= cell_2_5 8)))
 (let (($x1252 (= cell_2_5 7)))
 (let (($x3067 (= cell_2_5 6)))
 (let (($x305 (= cell_2_5 5)))
 (let (($x349 (= cell_2_5 4)))
 (let (($x3902 (= cell_2_5 3)))
 (let (($x2186 (= cell_2_5 2)))
 (let (($x3075 (= cell_2_5 1)))
 (or $x3075 $x2186 $x3902 $x349 $x305 $x3067 $x1252 $x3138 $x2154)))))))))))
(assert
 (let (($x3287 (= cell_3_5 9)))
 (let (($x3624 (= cell_3_5 8)))
 (let (($x828 (= cell_3_5 7)))
 (let (($x2812 (= cell_3_5 6)))
 (let (($x6689 (= cell_3_5 5)))
 (let (($x1501 (= cell_3_5 4)))
 (let (($x122 (= cell_3_5 3)))
 (let (($x2547 (= cell_3_5 2)))
 (let (($x1142 (= cell_3_5 1)))
 (or $x1142 $x2547 $x122 $x1501 $x6689 $x2812 $x828 $x3624 $x3287)))))))))))
(assert
 (let (($x2148 (= cell_4_5 9)))
 (let (($x64 (= cell_4_5 8)))
 (let (($x253 (= cell_4_5 7)))
 (let (($x2251 (= cell_4_5 6)))
 (let (($x1862 (= cell_4_5 5)))
 (let (($x2838 (= cell_4_5 4)))
 (let (($x1916 (= cell_4_5 3)))
 (let (($x2419 (= cell_4_5 2)))
 (let (($x2528 (= cell_4_5 1)))
 (or $x2528 $x2419 $x1916 $x2838 $x1862 $x2251 $x253 $x64 $x2148)))))))))))
(assert
 (let (($x1667 (= cell_5_5 9)))
 (let (($x580 (= cell_5_5 8)))
 (let (($x1956 (= cell_5_5 7)))
 (let (($x2898 (= cell_5_5 6)))
 (let (($x776 (= cell_5_5 5)))
 (let (($x527 (= cell_5_5 4)))
 (let (($x2150 (= cell_5_5 3)))
 (let (($x1101 (= cell_5_5 2)))
 (let (($x1508 (= cell_5_5 1)))
 (or $x1508 $x1101 $x2150 $x527 $x776 $x2898 $x1956 $x580 $x1667)))))))))))
(assert
 (let (($x2592 (= cell_6_5 9)))
 (let (($x597 (= cell_6_5 8)))
 (let (($x2181 (= cell_6_5 7)))
 (let (($x16 (= cell_6_5 6)))
 (let (($x3184 (= cell_6_5 5)))
 (let (($x2912 (= cell_6_5 4)))
 (let (($x2341 (= cell_6_5 3)))
 (let (($x3709 (= cell_6_5 2)))
 (let (($x858 (= cell_6_5 1)))
 (or $x858 $x3709 $x2341 $x2912 $x3184 $x16 $x2181 $x597 $x2592)))))))))))
(assert
 (let (($x2096 (= cell_7_5 9)))
 (let (($x1392 (= cell_7_5 8)))
 (let (($x1186 (= cell_7_5 7)))
 (let (($x2313 (= cell_7_5 6)))
 (let (($x935 (= cell_7_5 5)))
 (let (($x3720 (= cell_7_5 4)))
 (let (($x1354 (= cell_7_5 3)))
 (let (($x66 (= cell_7_5 2)))
 (let (($x1669 (= cell_7_5 1)))
 (or $x1669 $x66 $x1354 $x3720 $x935 $x2313 $x1186 $x1392 $x2096)))))))))))
(assert
 (let (($x757 (= cell_8_5 9)))
 (let (($x2135 (= cell_8_5 8)))
 (let (($x1192 (= cell_8_5 7)))
 (let (($x2669 (= cell_8_5 6)))
 (let (($x2605 (= cell_8_5 5)))
 (let (($x493 (= cell_8_5 4)))
 (let (($x35 (= cell_8_5 3)))
 (let (($x1409 (= cell_8_5 2)))
 (let (($x200 (= cell_8_5 1)))
 (or $x200 $x1409 $x35 $x493 $x2605 $x2669 $x1192 $x2135 $x757)))))))))))
(assert
 (let (($x965 (= cell_9_5 1)))
 (or $x965 (= cell_9_5 2) (= cell_9_5 3) (= cell_9_5 4) (= cell_9_5 5) (= cell_9_5 6) (= cell_9_5 7) (= cell_9_5 8) (= cell_9_5 9))))
(assert
 (let (($x4118 (= cell_1_6 9)))
 (let (($x3965 (= cell_1_6 8)))
 (let (($x2083 (= cell_1_6 7)))
 (let (($x974 (= cell_1_6 6)))
 (let (($x1339 (= cell_1_6 5)))
 (let (($x1961 (= cell_1_6 4)))
 (let (($x2129 (= cell_1_6 3)))
 (let (($x314 (= cell_1_6 2)))
 (let (($x249 (= cell_1_6 1)))
 (or $x249 $x314 $x2129 $x1961 $x1339 $x974 $x2083 $x3965 $x4118)))))))))))
(assert
 (let (($x3055 (= cell_2_6 2)))
 (or (= cell_2_6 1) $x3055 (= cell_2_6 3) (= cell_2_6 4) (= cell_2_6 5) (= cell_2_6 6) (= cell_2_6 7) (= cell_2_6 8) (= cell_2_6 9))))
(assert
 (let (($x58 (= cell_3_6 9)))
 (let (($x1534 (= cell_3_6 8)))
 (let (($x6858 (= cell_3_6 7)))
 (let (($x2544 (= cell_3_6 6)))
 (let (($x4166 (= cell_3_6 5)))
 (let (($x1607 (= cell_3_6 4)))
 (let (($x4243 (= cell_3_6 3)))
 (let (($x3783 (= cell_3_6 2)))
 (let (($x2824 (= cell_3_6 1)))
 (or $x2824 $x3783 $x4243 $x1607 $x4166 $x2544 $x6858 $x1534 $x58)))))))))))
(assert
 (let (($x2609 (= cell_4_6 9)))
 (let (($x2475 (= cell_4_6 8)))
 (let (($x705 (= cell_4_6 7)))
 (let (($x2024 (= cell_4_6 6)))
 (let (($x485 (= cell_4_6 5)))
 (let (($x1962 (= cell_4_6 4)))
 (let (($x872 (= cell_4_6 3)))
 (let (($x1911 (= cell_4_6 2)))
 (let (($x248 (= cell_4_6 1)))
 (or $x248 $x1911 $x872 $x1962 $x485 $x2024 $x705 $x2475 $x2609)))))))))))
(assert
 (let (($x1087 (= cell_5_6 9)))
 (let (($x196 (= cell_5_6 8)))
 (let (($x7963 (= cell_5_6 7)))
 (let (($x2914 (= cell_5_6 6)))
 (let (($x3200 (= cell_5_6 5)))
 (let (($x2844 (= cell_5_6 4)))
 (let (($x2327 (= cell_5_6 3)))
 (let (($x2035 (= cell_5_6 2)))
 (let (($x600 (= cell_5_6 1)))
 (or $x600 $x2035 $x2327 $x2844 $x3200 $x2914 $x7963 $x196 $x1087)))))))))))
(assert
 (let (($x2673 (= cell_6_6 1)))
 (or $x2673 (= cell_6_6 2) (= cell_6_6 3) (= cell_6_6 4) (= cell_6_6 5) (= cell_6_6 6) (= cell_6_6 7) (= cell_6_6 8) (= cell_6_6 9))))
(assert
 (let (($x2676 (= cell_7_6 9)))
 (let (($x7 (= cell_7_6 8)))
 (let (($x2352 (= cell_7_6 7)))
 (let (($x2347 (= cell_7_6 6)))
 (let (($x1710 (= cell_7_6 5)))
 (let (($x2179 (= cell_7_6 4)))
 (let (($x1907 (= cell_7_6 3)))
 (let (($x2721 (= cell_7_6 2)))
 (let (($x2886 (= cell_7_6 1)))
 (or $x2886 $x2721 $x1907 $x2179 $x1710 $x2347 $x2352 $x7 $x2676)))))))))))
(assert
 (let (($x738 (= cell_8_6 9)))
 (let (($x884 (= cell_8_6 8)))
 (let (($x133 (= cell_8_6 7)))
 (let (($x1660 (= cell_8_6 6)))
 (let (($x4211 (= cell_8_6 5)))
 (let (($x2817 (= cell_8_6 4)))
 (let (($x2207 (= cell_8_6 3)))
 (let (($x1924 (= cell_8_6 2)))
 (let (($x3317 (= cell_8_6 1)))
 (or $x3317 $x1924 $x2207 $x2817 $x4211 $x1660 $x133 $x884 $x738)))))))))))
(assert
 (let (($x583 (= cell_9_6 2)))
 (let (($x2427 (= cell_9_6 1)))
 (or $x2427 $x583 (= cell_9_6 3) (= cell_9_6 4) (= cell_9_6 5) (= cell_9_6 6) (= cell_9_6 7) (= cell_9_6 8) (= cell_9_6 9)))))
(assert
 (let (($x3060 (= cell_1_7 9)))
 (let (($x2610 (= cell_1_7 8)))
 (let (($x835 (= cell_1_7 7)))
 (let (($x7835 (= cell_1_7 6)))
 (let (($x3941 (= cell_1_7 5)))
 (let (($x540 (= cell_1_7 4)))
 (let (($x1523 (= cell_1_7 3)))
 (let (($x4246 (= cell_1_7 2)))
 (let (($x2563 (= cell_1_7 1)))
 (or $x2563 $x4246 $x1523 $x540 $x3941 $x7835 $x835 $x2610 $x3060)))))))))))
(assert
 (let (($x4190 (= cell_2_7 9)))
 (let (($x3002 (= cell_2_7 8)))
 (let (($x60 (= cell_2_7 7)))
 (let (($x1699 (= cell_2_7 6)))
 (let (($x508 (= cell_2_7 5)))
 (let (($x3675 (= cell_2_7 4)))
 (let (($x3334 (= cell_2_7 3)))
 (let (($x1224 (= cell_2_7 2)))
 (let (($x3449 (= cell_2_7 1)))
 (or $x3449 $x1224 $x3334 $x3675 $x508 $x1699 $x60 $x3002 $x4190)))))))))))
(assert
 (let (($x2656 (= cell_3_7 9)))
 (let (($x145 (= cell_3_7 8)))
 (let (($x1846 (= cell_3_7 7)))
 (let (($x89 (= cell_3_7 6)))
 (let (($x320 (= cell_3_7 5)))
 (let (($x2228 (= cell_3_7 4)))
 (let (($x1120 (= cell_3_7 3)))
 (let (($x3217 (= cell_3_7 2)))
 (let (($x1887 (= cell_3_7 1)))
 (or $x1887 $x3217 $x1120 $x2228 $x320 $x89 $x1846 $x145 $x2656)))))))))))
(assert
 (let (($x818 (= cell_4_7 1)))
 (or $x818 (= cell_4_7 2) (= cell_4_7 3) (= cell_4_7 4) (= cell_4_7 5) (= cell_4_7 6) (= cell_4_7 7) (= cell_4_7 8) (= cell_4_7 9))))
(assert
 (let (($x2038 (= cell_5_7 9)))
 (let (($x479 (= cell_5_7 8)))
 (let (($x707 (= cell_5_7 7)))
 (let (($x61 (= cell_5_7 6)))
 (let (($x3645 (= cell_5_7 5)))
 (let (($x986 (= cell_5_7 4)))
 (let (($x1473 (= cell_5_7 3)))
 (let (($x1706 (= cell_5_7 2)))
 (let (($x1079 (= cell_5_7 1)))
 (or $x1079 $x1706 $x1473 $x986 $x3645 $x61 $x707 $x479 $x2038)))))))))))
(assert
 (let (($x2494 (= cell_6_7 2)))
 (let (($x1425 (= cell_6_7 1)))
 (or $x1425 $x2494 (= cell_6_7 3) (= cell_6_7 4) (= cell_6_7 5) (= cell_6_7 6) (= cell_6_7 7) (= cell_6_7 8) (= cell_6_7 9)))))
(assert
 (let (($x2445 (= cell_7_7 9)))
 (let (($x258 (= cell_7_7 8)))
 (let (($x1250 (= cell_7_7 7)))
 (let (($x2996 (= cell_7_7 6)))
 (let (($x1358 (= cell_7_7 5)))
 (let (($x1963 (= cell_7_7 4)))
 (let (($x1012 (= cell_7_7 3)))
 (let (($x4141 (= cell_7_7 2)))
 (let (($x1503 (= cell_7_7 1)))
 (or $x1503 $x4141 $x1012 $x1963 $x1358 $x2996 $x1250 $x258 $x2445)))))))))))
(assert
 (let (($x1792 (= cell_8_7 9)))
 (let (($x820 (= cell_8_7 8)))
 (let (($x1725 (= cell_8_7 7)))
 (let (($x1976 (= cell_8_7 6)))
 (let (($x1380 (= cell_8_7 5)))
 (let (($x2832 (= cell_8_7 4)))
 (let (($x2698 (= cell_8_7 3)))
 (let (($x2266 (= cell_8_7 2)))
 (let (($x1067 (= cell_8_7 1)))
 (or $x1067 $x2266 $x2698 $x2832 $x1380 $x1976 $x1725 $x820 $x1792)))))))))))
(assert
 (let (($x1954 (= cell_9_7 1)))
 (or $x1954 (= cell_9_7 2) (= cell_9_7 3) (= cell_9_7 4) (= cell_9_7 5) (= cell_9_7 6) (= cell_9_7 7) (= cell_9_7 8) (= cell_9_7 9))))
(assert
 (let (($x367 (= cell_1_8 9)))
 (let (($x2360 (= cell_1_8 8)))
 (let (($x358 (= cell_1_8 7)))
 (let (($x3996 (= cell_1_8 6)))
 (let (($x294 (= cell_1_8 5)))
 (let (($x1282 (= cell_1_8 4)))
 (let (($x293 (= cell_1_8 3)))
 (let (($x1721 (= cell_1_8 2)))
 (let (($x588 (= cell_1_8 1)))
 (or $x588 $x1721 $x293 $x1282 $x294 $x3996 $x358 $x2360 $x367)))))))))))
(assert
 (let (($x1299 (= cell_2_8 9)))
 (let (($x3246 (= cell_2_8 8)))
 (let (($x2071 (= cell_2_8 7)))
 (let (($x996 (= cell_2_8 6)))
 (let (($x2032 (= cell_2_8 5)))
 (let (($x340 (= cell_2_8 4)))
 (let (($x3628 (= cell_2_8 3)))
 (let (($x487 (= cell_2_8 2)))
 (let (($x7989 (= cell_2_8 1)))
 (or $x7989 $x487 $x3628 $x340 $x2032 $x996 $x2071 $x3246 $x1299)))))))))))
(assert
 (let (($x1967 (= cell_3_8 9)))
 (let (($x7993 (= cell_3_8 8)))
 (let (($x1712 (= cell_3_8 7)))
 (let (($x2210 (= cell_3_8 6)))
 (let (($x1413 (= cell_3_8 5)))
 (let (($x1843 (= cell_3_8 4)))
 (let (($x470 (= cell_3_8 3)))
 (let (($x3314 (= cell_3_8 2)))
 (let (($x2424 (= cell_3_8 1)))
 (or $x2424 $x3314 $x470 $x1843 $x1413 $x2210 $x1712 $x7993 $x1967)))))))))))
(assert
 (let (($x1481 (= cell_4_8 9)))
 (let (($x2028 (= cell_4_8 8)))
 (let (($x867 (= cell_4_8 7)))
 (let (($x1235 (= cell_4_8 6)))
 (let (($x501 (= cell_4_8 5)))
 (let (($x4145 (= cell_4_8 4)))
 (let (($x1972 (= cell_4_8 3)))
 (let (($x1932 (= cell_4_8 2)))
 (let (($x2579 (= cell_4_8 1)))
 (or $x2579 $x1932 $x1972 $x4145 $x501 $x1235 $x867 $x2028 $x1481)))))))))))
(assert
 (let (($x4043 (= cell_5_8 2)))
 (or (= cell_5_8 1) $x4043 (= cell_5_8 3) (= cell_5_8 4) (= cell_5_8 5) (= cell_5_8 6) (= cell_5_8 7) (= cell_5_8 8) (= cell_5_8 9))))
(assert
 (let (($x4080 (= cell_6_8 9)))
 (let (($x3460 (= cell_6_8 8)))
 (let (($x31 (= cell_6_8 7)))
 (let (($x871 (= cell_6_8 6)))
 (let (($x2920 (= cell_6_8 5)))
 (let (($x2742 (= cell_6_8 4)))
 (let (($x1483 (= cell_6_8 3)))
 (let (($x821 (= cell_6_8 2)))
 (let (($x1284 (= cell_6_8 1)))
 (or $x1284 $x821 $x1483 $x2742 $x2920 $x871 $x31 $x3460 $x4080)))))))))))
(assert
 (let (($x3728 (= cell_7_8 9)))
 (let (($x1063 (= cell_7_8 8)))
 (let (($x1107 (= cell_7_8 7)))
 (let (($x497 (= cell_7_8 6)))
 (let (($x2415 (= cell_7_8 5)))
 (let (($x1933 (= cell_7_8 4)))
 (let (($x3103 (= cell_7_8 3)))
 (let (($x3048 (= cell_7_8 2)))
 (let (($x1288 (= cell_7_8 1)))
 (or $x1288 $x3048 $x3103 $x1933 $x2415 $x497 $x1107 $x1063 $x3728)))))))))))
(assert
 (let (($x1216 (= cell_8_8 1)))
 (or $x1216 (= cell_8_8 2) (= cell_8_8 3) (= cell_8_8 4) (= cell_8_8 5) (= cell_8_8 6) (= cell_8_8 7) (= cell_8_8 8) (= cell_8_8 9))))
(assert
 (let (($x1899 (= cell_9_8 2)))
 (let (($x4115 (= cell_9_8 1)))
 (or $x4115 $x1899 (= cell_9_8 3) (= cell_9_8 4) (= cell_9_8 5) (= cell_9_8 6) (= cell_9_8 7) (= cell_9_8 8) (= cell_9_8 9)))))
(assert
 (let (($x751 (= cell_1_9 1)))
 (or $x751 (= cell_1_9 2) (= cell_1_9 3) (= cell_1_9 4) (= cell_1_9 5) (= cell_1_9 6) (= cell_1_9 7) (= cell_1_9 8) (= cell_1_9 9))))
(assert
 (let (($x1743 (= cell_2_9 9)))
 (let (($x2568 (= cell_2_9 8)))
 (let (($x7859 (= cell_2_9 7)))
 (let (($x7841 (= cell_2_9 6)))
 (let (($x386 (= cell_2_9 5)))
 (let (($x806 (= cell_2_9 4)))
 (let (($x381 (= cell_2_9 3)))
 (let (($x1234 (= cell_2_9 2)))
 (let (($x3575 (= cell_2_9 1)))
 (or $x3575 $x1234 $x381 $x806 $x386 $x7841 $x7859 $x2568 $x1743)))))))))))
(assert
 (let (($x3866 (= cell_3_9 2)))
 (or (= cell_3_9 1) $x3866 (= cell_3_9 3) (= cell_3_9 4) (= cell_3_9 5) (= cell_3_9 6) (= cell_3_9 7) (= cell_3_9 8) (= cell_3_9 9))))
(assert
 (let (($x1786 (= cell_4_9 9)))
 (let (($x2889 (= cell_4_9 8)))
 (let (($x1162 (= cell_4_9 7)))
 (let (($x2672 (= cell_4_9 6)))
 (let (($x3400 (= cell_4_9 5)))
 (let (($x1950 (= cell_4_9 4)))
 (let (($x2867 (= cell_4_9 3)))
 (let (($x114 (= cell_4_9 2)))
 (let (($x682 (= cell_4_9 1)))
 (or $x682 $x114 $x2867 $x1950 $x3400 $x2672 $x1162 $x2889 $x1786)))))))))))
(assert
 (let (($x3781 (= cell_5_9 2)))
 (let (($x1664 (= cell_5_9 1)))
 (or $x1664 $x3781 (= cell_5_9 3) (= cell_5_9 4) (= cell_5_9 5) (= cell_5_9 6) (= cell_5_9 7) (= cell_5_9 8) (= cell_5_9 9)))))
(assert
 (let (($x1573 (= cell_6_9 2)))
 (let (($x1790 (= cell_6_9 1)))
 (or $x1790 $x1573 (= cell_6_9 3) (= cell_6_9 4) (= cell_6_9 5) (= cell_6_9 6) (= cell_6_9 7) (= cell_6_9 8) (= cell_6_9 9)))))
(assert
 (let (($x1570 (= cell_7_9 9)))
 (let (($x329 (= cell_7_9 8)))
 (let (($x2434 (= cell_7_9 7)))
 (let (($x3812 (= cell_7_9 6)))
 (let (($x4251 (= cell_7_9 5)))
 (let (($x2342 (= cell_7_9 4)))
 (let (($x1745 (= cell_7_9 3)))
 (let (($x712 (= cell_7_9 2)))
 (let (($x415 (= cell_7_9 1)))
 (or $x415 $x712 $x1745 $x2342 $x4251 $x3812 $x2434 $x329 $x1570)))))))))))
(assert
 (let (($x251 (= cell_8_9 2)))
 (let (($x1350 (= cell_8_9 1)))
 (or $x1350 $x251 (= cell_8_9 3) (= cell_8_9 4) (= cell_8_9 5) (= cell_8_9 6) (= cell_8_9 7) (= cell_8_9 8) (= cell_8_9 9)))))
(assert
 (let (($x566 (= cell_9_9 2)))
 (let (($x2350 (= cell_9_9 1)))
 (or $x2350 $x566 (= cell_9_9 3) (= cell_9_9 4) (= cell_9_9 5) (= cell_9_9 6) (= cell_9_9 7) (= cell_9_9 8) (= cell_9_9 9)))))
(assert
 (and (distinct cell_1_1 cell_1_2 cell_1_3 cell_1_4 cell_1_5 cell_1_6 cell_1_7 cell_1_8 cell_1_9) true))
(assert
 (and (distinct cell_2_1 cell_2_2 cell_2_3 cell_2_4 cell_2_5 cell_2_6 cell_2_7 cell_2_8 cell_2_9) true))
(assert
 (and (distinct cell_3_1 cell_3_2 cell_3_3 cell_3_4 cell_3_5 cell_3_6 cell_3_7 cell_3_8 cell_3_9) true))
(assert
 (and (distinct cell_4_1 cell_4_2 cell_4_3 cell_4_4 cell_4_5 cell_4_6 cell_4_7 cell_4_8 cell_4_9) true))
(assert
 (and (distinct cell_5_1 cell_5_2 cell_5_3 cell_5_4 cell_5_5 cell_5_6 cell_5_7 cell_5_8 cell_5_9) true))
(assert
 (and (distinct cell_6_1 cell_6_2 cell_6_3 cell_6_4 cell_6_5 cell_6_6 cell_6_7 cell_6_8 cell_6_9) true))
(assert
 (and (distinct cell_7_1 cell_7_2 cell_7_3 cell_7_4 cell_7_5 cell_7_6 cell_7_7 cell_7_8 cell_7_9) true))
(assert
 (and (distinct cell_8_1 cell_8_2 cell_8_3 cell_8_4 cell_8_5 cell_8_6 cell_8_7 cell_8_8 cell_8_9) true))
(assert
 (and (distinct cell_9_1 cell_9_2 cell_9_3 cell_9_4 cell_9_5 cell_9_6 cell_9_7 cell_9_8 cell_9_9) true))
(assert
 (and (distinct cell_1_1 cell_2_1 cell_3_1 cell_4_1 cell_5_1 cell_6_1 cell_7_1 cell_8_1 cell_9_1) true))
(assert
 (and (distinct cell_1_2 cell_2_2 cell_3_2 cell_4_2 cell_5_2 cell_6_2 cell_7_2 cell_8_2 cell_9_2) true))
(assert
 (and (distinct cell_1_3 cell_2_3 cell_3_3 cell_4_3 cell_5_3 cell_6_3 cell_7_3 cell_8_3 cell_9_3) true))
(assert
 (and (distinct cell_1_4 cell_2_4 cell_3_4 cell_4_4 cell_5_4 cell_6_4 cell_7_4 cell_8_4 cell_9_4) true))
(assert
 (and (distinct cell_1_5 cell_2_5 cell_3_5 cell_4_5 cell_5_5 cell_6_5 cell_7_5 cell_8_5 cell_9_5) true))
(assert
 (and (distinct cell_1_6 cell_2_6 cell_3_6 cell_4_6 cell_5_6 cell_6_6 cell_7_6 cell_8_6 cell_9_6) true))
(assert
 (and (distinct cell_1_7 cell_2_7 cell_3_7 cell_4_7 cell_5_7 cell_6_7 cell_7_7 cell_8_7 cell_9_7) true))
(assert
 (and (distinct cell_1_8 cell_2_8 cell_3_8 cell_4_8 cell_5_8 cell_6_8 cell_7_8 cell_8_8 cell_9_8) true))
(assert
 (and (distinct cell_1_9 cell_2_9 cell_3_9 cell_4_9 cell_5_9 cell_6_9 cell_7_9 cell_8_9 cell_9_9) true))
(assert
 (and (distinct cell_1_1 cell_1_2 cell_1_3 cell_2_1 cell_2_2 cell_2_3 cell_3_1 cell_3_2 cell_3_3) true))
(assert
 (and (distinct cell_1_4 cell_1_5 cell_1_6 cell_2_4 cell_2_5 cell_2_6 cell_3_4 cell_3_5 cell_3_6) true))
(assert
 (and (distinct cell_1_7 cell_1_8 cell_1_9 cell_2_7 cell_2_8 cell_2_9 cell_3_7 cell_3_8 cell_3_9) true))
(assert
 (and (distinct cell_4_1 cell_4_2 cell_4_3 cell_5_1 cell_5_2 cell_5_3 cell_6_1 cell_6_2 cell_6_3) true))
(assert
 (and (distinct cell_4_4 cell_4_5 cell_4_6 cell_5_4 cell_5_5 cell_5_6 cell_6_4 cell_6_5 cell_6_6) true))
(assert
 (and (distinct cell_4_7 cell_4_8 cell_4_9 cell_5_7 cell_5_8 cell_5_9 cell_6_7 cell_6_8 cell_6_9) true))
(assert
 (and (distinct cell_7_1 cell_7_2 cell_7_3 cell_8_1 cell_8_2 cell_8_3 cell_9_1 cell_9_2 cell_9_3) true))
(assert
 (and (distinct cell_7_4 cell_7_5 cell_7_6 cell_8_4 cell_8_5 cell_8_6 cell_9_4 cell_9_5 cell_9_6) true))
(assert
 (and (distinct cell_7_7 cell_7_8 cell_7_9 cell_8_7 cell_8_8 cell_8_9 cell_9_7 cell_9_8 cell_9_9) true))
(assert
 (let (($x7875 (and (distinct cell_5_9 cell_6_8 cell_7_7 cell_8_6) true)))
 (let (($x2367 (and (distinct cell_2_9 cell_3_8 cell_4_7 cell_5_6 cell_6_5 cell_7_4 cell_8_3 cell_9_2) true)))
 (let (($x6733 (and (distinct cell_1_8 cell_2_7 cell_3_6 cell_4_5 cell_5_4 cell_6_3 cell_7_2 cell_8_1) true)))
 (let (($x1753 (and (distinct cell_1_5 cell_2_4 cell_3_3 cell_4_2) true)))
 (let (($x1847 (and (distinct cell_5_1 cell_6_2 cell_7_3 cell_8_4) true)))
 (let (($x3004 (and (distinct cell_2_1 cell_3_2 cell_4_3 cell_5_4 cell_6_5 cell_7_6 cell_8_7 cell_9_8) true)))
 (let (($x1196 (and (distinct cell_1_2 cell_2_3 cell_3_4 cell_4_5 cell_5_6 cell_6_7 cell_7_8 cell_8_9) true)))
 (let (($x1457 (and (distinct cell_1_5 cell_2_6 cell_3_7 cell_4_8) true)))
 (and $x1457 $x1196 $x3004 $x1847 $x1753 $x6733 $x2367 $x7875))))))))))
(assert
 (= cell_7_7 2))
(check-sat)
